103 103 0 1 0
1 0.0000000000000000e+00 0.0000000000000000e+00 0.0000000000000000e+00
2 1.0000000000000000e+00 0.0000000000000000e+00 0.0000000000000000e+00
3 1.0000000000000000e+00 1.0000000000000000e+00 0.0000000000000000e+00
4 0.0000000000000000e+00 1.0000000000000000e+00 0.0000000000000000e+00
5 5.0000000000000000e-01 5.0000000000000000e-01 0.0000000000000000e+00
6 0.0000000000000000e+00 5.0000000000000000e-01 0.0000000000000000e+00
7 5.0000000000000000e-01 0.0000000000000000e+00 0.0000000000000000e+00
8 1.0000000000000000e+00 5.0000000000000000e-01 0.0000000000000000e+00
9 5.0000000000000000e-01 1.0000000000000000e+00 0.0000000000000000e+00
10 7.5000000000000000e-01 2.5000000000000000e-01 0.0000000000000000e+00
11 2.5000000000000000e-01 7.5000000000000000e-01 0.0000000000000000e+00
12 7.5000000000000000e-01 7.5000000000000000e-01 0.0000000000000000e+00
13 5.0000000000000000e-01 2.5000000000000000e-01 0.0000000000000000e+00
14 2.5000000000000000e-01 3.7500000000000000e-01 0.0000000000000000e+00
15 3.1250000000000000e-01 5.6250000000000000e-01 0.0000000000000000e+00
16 0.0000000000000000e+00 2.5000000000000000e-01 0.0000000000000000e+00
17 7.5000000000000000e-01 0.0000000000000000e+00 0.0000000000000000e+00
18 1.0000000000000000e+00 2.5000000000000000e-01 0.0000000000000000e+00
19 7.5000000000000000e-01 5.0000000000000000e-01 0.0000000000000000e+00
20 5.0000000000000000e-01 7.5000000000000000e-01 0.0000000000000000e+00
21 2.5000000000000000e-01 1.0000000000000000e+00 0.0000000000000000e+00
22 0.0000000000000000e+00 7.5000000000000000e-01 0.0000000000000000e+00
23 1.0000000000000000e+00 7.5000000000000000e-01 0.0000000000000000e+00
24 7.5000000000000000e-01 1.0000000000000000e+00 0.0000000000000000e+00
25 2.5000000000000000e-01 0.0000000000000000e+00 0.0000000000000000e+00
26 3.1250000000000000e-01 1.8750000000000000e-01 0.0000000000000000e+00
27 0.0000000000000000e+00 1.9685262441635132e-01 0.0000000000000000e+00
28 2.8853109106421471e-02 2.2114689648151398e-01 0.0000000000000000e+00
29 4.5222872868180275e-03 2.0066037774085999e-01 0.0000000000000000e+00
30 5.1005247980356216e-02 2.3979894816875458e-01 0.0000000000000000e+00
31 1.5540249645709991e-01 3.2770124077796936e-01 0.0000000000000000e+00
32 2.2589252889156342e-01 3.8705372810363770e-01 0.0000000000000000e+00
33 2.6499173045158386e-01 4.1997519135475159e-01 0.0000000000000000e+00
34 3.9972895383834839e-01 5.3342366218566895e-01 0.0000000000000000e+00
35 5.0000000000000000e-01 6.1785173416137695e-01 0.0000000000000000e+00
36 6.5694600343704224e-01 7.5000000000000000e-01 0.0000000000000000e+00
37 5.5805301666259766e-01 6.6673225164413452e-01 0.0000000000000000e+00
38 2.8445270657539368e-01 2.7164185047149658e-01 0.0000000000000000e+00
39 3.9824524521827698e-01 3.0087736248970032e-01 0.0000000000000000e+00
40 3.2534819841384888e-01 2.8214868903160095e-01 0.0000000000000000e+00
41 5.0000000000000000e-01 3.2702016830444336e-01 0.0000000000000000e+00
42 6.3762205839157104e-01 3.6237794160842896e-01 0.0000000000000000e+00
43 7.5000000000000000e-01 3.9125004410743713e-01 0.0000000000000000e+00
44 9.4008713960647583e-01 4.4008713960647583e-01 0.0000000000000000e+00
45 8.6824584007263184e-01 4.2162969708442688e-01 0.0000000000000000e+00
46 9.2295390367507935e-01 4.3568527698516846e-01 0.0000000000000000e+00
47 7.1261149644851685e-01 5.0000000000000000e-01 0.0000000000000000e+00
48 7.3401653766632080e-01 7.3401653766632080e-01 0.0000000000000000e+00
49 7.3267018795013428e-01 7.1929728984832764e-01 0.0000000000000000e+00
50 7.3547852039337158e-01 7.5000000000000000e-01 0.0000000000000000e+00
51 7.3669546842575073e-01 7.6330453157424927e-01 0.0000000000000000e+00
52 7.5000000000000000e-01 9.0876024961471558e-01 0.0000000000000000e+00
53 7.5834554433822632e-01 1.0000000000000000e+00 0.0000000000000000e+00
54 7.5136703252792358e-01 9.2370575666427612e-01 0.0000000000000000e+00
55 9.7903597354888916e-01 5.0000000000000000e-01 0.0000000000000000e+00
56 9.6377909183502197e-01 5.3622090816497803e-01 0.0000000000000000e+00
57 9.6425688266754150e-01 5.3508663177490234e-01 0.0000000000000000e+00
58 8.7373143434524536e-01 7.5000000000000000e-01 0.0000000000000000e+00
59 8.3706015348434448e-01 8.3706015348434448e-01 0.0000000000000000e+00
60 7.6842689514160156e-01 1.0000000000000000e+00 0.0000000000000000e+00
61 7.9253685474395752e-01 9.4276142120361328e-01 0.0000000000000000e+00
62 5.4938697814941406e-01 9.5061302185058594e-01 0.0000000000000000e+00
63 6.1912626028060913e-01 7.5000000000000000e-01 0.0000000000000000e+00
64 5.7471281290054321e-01 8.7776029109954834e-01 0.0000000000000000e+00
65 6.2768971920013428e-01 7.2536623477935791e-01 0.0000000000000000e+00
66 6.5288603305816650e-01 6.5288603305816650e-01 0.0000000000000000e+00
67 7.0603394508361816e-01 5.0000000000000000e-01 0.0000000000000000e+00
68 6.9711875915527344e-01 5.2564555406570435e-01 0.0000000000000000e+00
69 7.4434393644332886e-01 3.8979688286781311e-01 0.0000000000000000e+00
70 7.2322010993957520e-01 4.5056200027465820e-01 0.0000000000000000e+00
71 5.0000000000000000e-01 1.0229914449155331e-02 0.0000000000000000e+00
72 7.1461927890777588e-01 2.5000000000000000e-01 0.0000000000000000e+00
73 5.4739534854888916e-01 6.3179440796375275e-02 0.0000000000000000e+00
74 6.3630199432373047e-01 1.6250485181808472e-01 0.0000000000000000e+00
75 7.3133045434951782e-01 2.6866951584815979e-01 0.0000000000000000e+00
76 7.5000000000000000e-01 2.8952690958976746e-01 0.0000000000000000e+00
77 9.3839544057846069e-01 5.0000000000000000e-01 0.0000000000000000e+00
78 9.2965114116668701e-01 4.9023100733757019e-01 0.0000000000000000e+00
79 1.0000000000000000e+00 9.6689134836196899e-01 0.0000000000000000e+00
80 9.6466881036758423e-01 9.6466881036758423e-01 0.0000000000000000e+00
81 9.6983540058135986e-01 9.6499377489089966e-01 0.0000000000000000e+00
82 7.8799051046371460e-01 9.5355474948883057e-01 0.0000000000000000e+00
83 8.8016998767852783e-01 9.5935332775115967e-01 0.0000000000000000e+00
84 4.2092591524124146e-01 9.2092591524124146e-01 0.0000000000000000e+00
85 5.0000000000000000e-01 8.0775707960128784e-01 0.0000000000000000e+00
86 4.9548283219337463e-01 8.1422191858291626e-01 0.0000000000000000e+00
87 5.4035639762878418e-01 7.5000000000000000e-01 0.0000000000000000e+00
88 5.8354192972183228e-01 6.8819391727447510e-01 0.0000000000000000e+00
89 6.2658774852752686e-01 6.2658774852752686e-01 0.0000000000000000e+00
90 7.1289235353469849e-01 5.0307077169418335e-01 0.0000000000000000e+00
91 7.1503800153732300e-01 5.0000000000000000e-01 0.0000000000000000e+00
92 7.1503442525863647e-01 5.0000512599945068e-01 0.0000000000000000e+00
93 0.0000000000000000e+00 2.6650714874267578e-01 0.0000000000000000e+00
94 1.7420351505279541e-01 3.4353166818618774e-01 0.0000000000000000e+00
95 1.4882298186421394e-02 2.7308738231658936e-01 0.0000000000000000e+00
96 1.6673736274242401e-01 3.4023049473762512e-01 0.0000000000000000e+00
97 5.0000000000000000e-01 4.0078092366456985e-02 0.0000000000000000e+00
98 5.5523610115051270e-01 8.9691273868083954e-02 0.0000000000000000e+00
99 7.3371338844299316e-01 2.5000000000000000e-01 0.0000000000000000e+00
100 7.4229341745376587e-01 2.5770658254623413e-01 0.0000000000000000e+00
101 7.5000000000000000e-01 2.6462867856025696e-01 0.0000000000000000e+00
102 8.9370328187942505e-01 3.9370328187942505e-01 0.0000000000000000e+00
103 7.7591580152511597e-01 2.8790628910064697e-01 0.0000000000000000e+00
1 0 pt 1
2 0 pt 2
3 0 pt 3
4 0 pt 4
5 0 pt 5
6 0 pt 6
7 0 pt 7
8 0 pt 8
9 0 pt 9
10 0 pt 10
11 0 pt 11
12 0 pt 12
13 0 pt 13
14 0 pt 14
15 0 pt 15
16 0 pt 16
17 0 pt 17
18 0 pt 18
19 0 pt 19
20 0 pt 20
21 0 pt 21
22 0 pt 22
23 0 pt 23
24 0 pt 24
25 0 pt 25
26 0 pt 26
27 0 pt 27
28 0 pt 28
29 0 pt 29
30 0 pt 30
31 0 pt 31
32 0 pt 32
33 0 pt 33
34 0 pt 34
35 0 pt 35
36 0 pt 36
37 0 pt 37
38 0 pt 38
39 0 pt 39
40 0 pt 40
41 0 pt 41
42 0 pt 42
43 0 pt 43
44 0 pt 44
45 0 pt 45
46 0 pt 46
47 0 pt 47
48 0 pt 48
49 0 pt 49
50 0 pt 50
51 0 pt 51
52 0 pt 52
53 0 pt 53
54 0 pt 54
55 0 pt 55
56 0 pt 56
57 0 pt 57
58 0 pt 58
59 0 pt 59
60 0 pt 60
61 0 pt 61
62 0 pt 62
63 0 pt 63
64 0 pt 64
65 0 pt 65
66 0 pt 66
67 0 pt 67
68 0 pt 68
69 0 pt 69
70 0 pt 70
71 0 pt 71
72 0 pt 72
73 0 pt 73
74 0 pt 74
75 0 pt 75
76 0 pt 76
77 0 pt 77
78 0 pt 78
79 0 pt 79
80 0 pt 80
81 0 pt 81
82 0 pt 82
83 0 pt 83
84 0 pt 84
85 0 pt 85
86 0 pt 86
87 0 pt 87
88 0 pt 88
89 0 pt 89
90 0 pt 90
91 0 pt 91
92 0 pt 92
93 0 pt 93
94 0 pt 94
95 0 pt 95
96 0 pt 96
97 0 pt 97
98 0 pt 98
99 0 pt 99
100 0 pt 100
101 0 pt 101
102 0 pt 102
103 0 pt 103
1 1
Marker, -
1 1.0000000000000000e+00
2 2.0000000000000000e+00
3 3.0000000000000000e+00
4 4.0000000000000000e+00
5 0.0000000000000000e+00
6 8.0000000000000000e+00
7 5.0000000000000000e+00
8 6.0000000000000000e+00
9 7.0000000000000000e+00
10 0.0000000000000000e+00
11 0.0000000000000000e+00
12 0.0000000000000000e+00
13 0.0000000000000000e+00
14 0.0000000000000000e+00
15 0.0000000000000000e+00
16 8.0000000000000000e+00
17 5.0000000000000000e+00
18 6.0000000000000000e+00
19 0.0000000000000000e+00
20 0.0000000000000000e+00
21 7.0000000000000000e+00
22 8.0000000000000000e+00
23 6.0000000000000000e+00
24 7.0000000000000000e+00
25 5.0000000000000000e+00
26 0.0000000000000000e+00
27 8.0000000000000000e+00
28 0.0000000000000000e+00
29 0.0000000000000000e+00
30 0.0000000000000000e+00
31 0.0000000000000000e+00
32 0.0000000000000000e+00
33 0.0000000000000000e+00
34 0.0000000000000000e+00
35 0.0000000000000000e+00
36 0.0000000000000000e+00
37 0.0000000000000000e+00
38 0.0000000000000000e+00
39 0.0000000000000000e+00
40 0.0000000000000000e+00
41 0.0000000000000000e+00
42 0.0000000000000000e+00
43 0.0000000000000000e+00
44 0.0000000000000000e+00
45 0.0000000000000000e+00
46 0.0000000000000000e+00
47 0.0000000000000000e+00
48 0.0000000000000000e+00
49 0.0000000000000000e+00
50 0.0000000000000000e+00
51 0.0000000000000000e+00
52 0.0000000000000000e+00
53 7.0000000000000000e+00
54 0.0000000000000000e+00
55 0.0000000000000000e+00
56 0.0000000000000000e+00
57 0.0000000000000000e+00
58 0.0000000000000000e+00
59 0.0000000000000000e+00
60 7.0000000000000000e+00
61 0.0000000000000000e+00
62 0.0000000000000000e+00
63 0.0000000000000000e+00
64 0.0000000000000000e+00
65 0.0000000000000000e+00
66 0.0000000000000000e+00
67 0.0000000000000000e+00
68 0.0000000000000000e+00
69 0.0000000000000000e+00
70 0.0000000000000000e+00
71 0.0000000000000000e+00
72 0.0000000000000000e+00
73 0.0000000000000000e+00
74 0.0000000000000000e+00
75 0.0000000000000000e+00
76 0.0000000000000000e+00
77 0.0000000000000000e+00
78 0.0000000000000000e+00
79 6.0000000000000000e+00
80 0.0000000000000000e+00
81 0.0000000000000000e+00
82 0.0000000000000000e+00
83 0.0000000000000000e+00
84 0.0000000000000000e+00
85 0.0000000000000000e+00
86 0.0000000000000000e+00
87 0.0000000000000000e+00
88 0.0000000000000000e+00
89 0.0000000000000000e+00
90 0.0000000000000000e+00
91 0.0000000000000000e+00
92 0.0000000000000000e+00
93 8.0000000000000000e+00
94 0.0000000000000000e+00
95 0.0000000000000000e+00
96 0.0000000000000000e+00
97 0.0000000000000000e+00
98 0.0000000000000000e+00
99 0.0000000000000000e+00
100 0.0000000000000000e+00
101 0.0000000000000000e+00
102 0.0000000000000000e+00
103 0.0000000000000000e+00
