103 183 0 1 0
1 0.0000000000000000e+00 0.0000000000000000e+00 0.0000000000000000e+00
2 1.0000000000000000e+00 0.0000000000000000e+00 0.0000000000000000e+00
3 1.0000000000000000e+00 1.0000000000000000e+00 0.0000000000000000e+00
4 0.0000000000000000e+00 1.0000000000000000e+00 0.0000000000000000e+00
5 5.0000000000000000e-01 5.0000000000000000e-01 0.0000000000000000e+00
6 0.0000000000000000e+00 5.0000000000000000e-01 0.0000000000000000e+00
7 5.0000000000000000e-01 0.0000000000000000e+00 0.0000000000000000e+00
8 1.0000000000000000e+00 5.0000000000000000e-01 0.0000000000000000e+00
9 5.0000000000000000e-01 1.0000000000000000e+00 0.0000000000000000e+00
10 7.5000000000000000e-01 2.5000000000000000e-01 0.0000000000000000e+00
11 2.5000000000000000e-01 7.5000000000000000e-01 0.0000000000000000e+00
12 7.5000000000000000e-01 7.5000000000000000e-01 0.0000000000000000e+00
13 5.0000000000000000e-01 2.5000000000000000e-01 0.0000000000000000e+00
14 2.5000000000000000e-01 3.7500000000000000e-01 0.0000000000000000e+00
15 3.1250000000000000e-01 5.6250000000000000e-01 0.0000000000000000e+00
16 0.0000000000000000e+00 2.5000000000000000e-01 0.0000000000000000e+00
17 7.5000000000000000e-01 0.0000000000000000e+00 0.0000000000000000e+00
18 1.0000000000000000e+00 2.5000000000000000e-01 0.0000000000000000e+00
19 7.5000000000000000e-01 5.0000000000000000e-01 0.0000000000000000e+00
20 5.0000000000000000e-01 7.5000000000000000e-01 0.0000000000000000e+00
21 2.5000000000000000e-01 1.0000000000000000e+00 0.0000000000000000e+00
22 0.0000000000000000e+00 7.5000000000000000e-01 0.0000000000000000e+00
23 1.0000000000000000e+00 7.5000000000000000e-01 0.0000000000000000e+00
24 7.5000000000000000e-01 1.0000000000000000e+00 0.0000000000000000e+00
25 2.5000000000000000e-01 0.0000000000000000e+00 0.0000000000000000e+00
26 3.1250000000000000e-01 1.8750000000000000e-01 0.0000000000000000e+00
27 0.0000000000000000e+00 1.9685262441635132e-01 0.0000000000000000e+00
28 2.8853109106421471e-02 2.2114689648151398e-01 0.0000000000000000e+00
29 4.5222872868180275e-03 2.0066037774085999e-01 0.0000000000000000e+00
30 5.1005247980356216e-02 2.3979894816875458e-01 0.0000000000000000e+00
31 1.5540249645709991e-01 3.2770124077796936e-01 0.0000000000000000e+00
32 2.2589252889156342e-01 3.8705372810363770e-01 0.0000000000000000e+00
33 2.6499173045158386e-01 4.1997519135475159e-01 0.0000000000000000e+00
34 3.9972895383834839e-01 5.3342366218566895e-01 0.0000000000000000e+00
35 5.0000000000000000e-01 6.1785173416137695e-01 0.0000000000000000e+00
36 6.5694600343704224e-01 7.5000000000000000e-01 0.0000000000000000e+00
37 5.5805301666259766e-01 6.6673225164413452e-01 0.0000000000000000e+00
38 2.8445270657539368e-01 2.7164185047149658e-01 0.0000000000000000e+00
39 3.9824524521827698e-01 3.0087736248970032e-01 0.0000000000000000e+00
40 3.2534819841384888e-01 2.8214868903160095e-01 0.0000000000000000e+00
41 5.0000000000000000e-01 3.2702016830444336e-01 0.0000000000000000e+00
42 6.3762205839157104e-01 3.6237794160842896e-01 0.0000000000000000e+00
43 7.5000000000000000e-01 3.9125004410743713e-01 0.0000000000000000e+00
44 9.4008713960647583e-01 4.4008713960647583e-01 0.0000000000000000e+00
45 8.6824584007263184e-01 4.2162969708442688e-01 0.0000000000000000e+00
46 9.2295390367507935e-01 4.3568527698516846e-01 0.0000000000000000e+00
47 7.1261149644851685e-01 5.0000000000000000e-01 0.0000000000000000e+00
48 7.3401653766632080e-01 7.3401653766632080e-01 0.0000000000000000e+00
49 7.3267018795013428e-01 7.1929728984832764e-01 0.0000000000000000e+00
50 7.3547852039337158e-01 7.5000000000000000e-01 0.0000000000000000e+00
51 7.3669546842575073e-01 7.6330453157424927e-01 0.0000000000000000e+00
52 7.5000000000000000e-01 9.0876024961471558e-01 0.0000000000000000e+00
53 7.5834554433822632e-01 1.0000000000000000e+00 0.0000000000000000e+00
54 7.5136703252792358e-01 9.2370575666427612e-01 0.0000000000000000e+00
55 9.7903597354888916e-01 5.0000000000000000e-01 0.0000000000000000e+00
56 9.6377909183502197e-01 5.3622090816497803e-01 0.0000000000000000e+00
57 9.6425688266754150e-01 5.3508663177490234e-01 0.0000000000000000e+00
58 8.7373143434524536e-01 7.5000000000000000e-01 0.0000000000000000e+00
59 8.3706015348434448e-01 8.3706015348434448e-01 0.0000000000000000e+00
60 7.6842689514160156e-01 1.0000000000000000e+00 0.0000000000000000e+00
61 7.9253685474395752e-01 9.4276142120361328e-01 0.0000000000000000e+00
62 5.4938697814941406e-01 9.5061302185058594e-01 0.0000000000000000e+00
63 6.1912626028060913e-01 7.5000000000000000e-01 0.0000000000000000e+00
64 5.7471281290054321e-01 8.7776029109954834e-01 0.0000000000000000e+00
65 6.2768971920013428e-01 7.2536623477935791e-01 0.0000000000000000e+00
66 6.5288603305816650e-01 6.5288603305816650e-01 0.0000000000000000e+00
67 7.0603394508361816e-01 5.0000000000000000e-01 0.0000000000000000e+00
68 6.9711875915527344e-01 5.2564555406570435e-01 0.0000000000000000e+00
69 7.4434393644332886e-01 3.8979688286781311e-01 0.0000000000000000e+00
70 7.2322010993957520e-01 4.5056200027465820e-01 0.0000000000000000e+00
71 5.0000000000000000e-01 1.0229914449155331e-02 0.0000000000000000e+00
72 7.1461927890777588e-01 2.5000000000000000e-01 0.0000000000000000e+00
73 5.4739534854888916e-01 6.3179440796375275e-02 0.0000000000000000e+00
74 6.3630199432373047e-01 1.6250485181808472e-01 0.0000000000000000e+00
75 7.3133045434951782e-01 2.6866951584815979e-01 0.0000000000000000e+00
76 7.5000000000000000e-01 2.8952690958976746e-01 0.0000000000000000e+00
77 9.3839544057846069e-01 5.0000000000000000e-01 0.0000000000000000e+00
78 9.2965114116668701e-01 4.9023100733757019e-01 0.0000000000000000e+00
79 1.0000000000000000e+00 9.6689134836196899e-01 0.0000000000000000e+00
80 9.6466881036758423e-01 9.6466881036758423e-01 0.0000000000000000e+00
81 9.6983540058135986e-01 9.6499377489089966e-01 0.0000000000000000e+00
82 7.8799051046371460e-01 9.5355474948883057e-01 0.0000000000000000e+00
83 8.8016998767852783e-01 9.5935332775115967e-01 0.0000000000000000e+00
84 4.2092591524124146e-01 9.2092591524124146e-01 0.0000000000000000e+00
85 5.0000000000000000e-01 8.0775707960128784e-01 0.0000000000000000e+00
86 4.9548283219337463e-01 8.1422191858291626e-01 0.0000000000000000e+00
87 5.4035639762878418e-01 7.5000000000000000e-01 0.0000000000000000e+00
88 5.8354192972183228e-01 6.8819391727447510e-01 0.0000000000000000e+00
89 6.2658774852752686e-01 6.2658774852752686e-01 0.0000000000000000e+00
90 7.1289235353469849e-01 5.0307077169418335e-01 0.0000000000000000e+00
91 7.1503800153732300e-01 5.0000000000000000e-01 0.0000000000000000e+00
92 7.1503442525863647e-01 5.0000512599945068e-01 0.0000000000000000e+00
93 0.0000000000000000e+00 2.6650714874267578e-01 0.0000000000000000e+00
94 1.7420351505279541e-01 3.4353166818618774e-01 0.0000000000000000e+00
95 1.4882298186421394e-02 2.7308738231658936e-01 0.0000000000000000e+00
96 1.6673736274242401e-01 3.4023049473762512e-01 0.0000000000000000e+00
97 5.0000000000000000e-01 4.0078092366456985e-02 0.0000000000000000e+00
98 5.5523610115051270e-01 8.9691273868083954e-02 0.0000000000000000e+00
99 7.3371338844299316e-01 2.5000000000000000e-01 0.0000000000000000e+00
100 7.4229341745376587e-01 2.5770658254623413e-01 0.0000000000000000e+00
101 7.5000000000000000e-01 2.6462867856025696e-01 0.0000000000000000e+00
102 8.9370328187942505e-01 3.9370328187942505e-01 0.0000000000000000e+00
103 7.7591580152511597e-01 2.8790628910064697e-01 0.0000000000000000e+00
1 0 line 19 12
2 0 line 26 7
3 0 line 13 26
4 0 line 11 20
5 0 line 15 6
6 0 line 7 10
7 0 line 18 8
8 0 line 10 18
9 0 line 17 2
10 0 line 2 10
11 0 line 10 17
12 0 line 22 6
13 0 line 6 11
14 0 line 11 22
15 0 line 21 4
16 0 line 4 11
17 0 line 11 21
18 0 line 24 9
19 0 line 5 14
20 0 line 1 25
21 0 line 20 15
22 0 line 15 11
23 0 line 7 17
24 0 line 2 18
25 0 line 9 21
26 0 line 4 22
27 0 line 8 23
28 0 line 25 26
29 0 line 25 7
30 0 line 16 27
31 0 line 27 1
32 0 line 25 28
33 0 line 28 16
34 0 line 27 29
35 0 line 29 28
36 0 line 28 30
37 0 line 30 16
38 0 line 26 30
39 0 line 30 31
40 0 line 31 16
41 0 line 14 31
42 0 line 32 6
43 0 line 14 32
44 0 line 32 33
45 0 line 33 15
46 0 line 14 33
47 0 line 33 34
48 0 line 34 15
49 0 line 5 34
50 0 line 34 35
51 0 line 35 20
52 0 line 5 35
53 0 line 35 37
54 0 line 14 38
55 0 line 38 26
56 0 line 13 39
57 0 line 39 14
58 0 line 38 40
59 0 line 40 39
60 0 line 39 41
61 0 line 41 5
62 0 line 13 41
63 0 line 41 42
64 0 line 42 5
65 0 line 43 19
66 0 line 44 8
67 0 line 43 45
68 0 line 45 46
69 0 line 46 44
70 0 line 12 48
71 0 line 49 48
72 0 line 48 50
73 0 line 50 36
74 0 line 12 50
75 0 line 50 51
76 0 line 12 51
77 0 line 51 52
78 0 line 52 24
79 0 line 12 52
80 0 line 53 24
81 0 line 52 54
82 0 line 54 53
83 0 line 55 8
84 0 line 8 56
85 0 line 56 12
86 0 line 55 57
87 0 line 57 56
88 0 line 56 58
89 0 line 58 12
90 0 line 23 58
91 0 line 58 59
92 0 line 59 12
93 0 line 60 53
94 0 line 3 60
95 0 line 59 61
96 0 line 51 62
97 0 line 62 9
98 0 line 63 36
99 0 line 62 64
100 0 line 64 63
101 0 line 63 65
102 0 line 65 36
103 0 line 65 66
104 0 line 66 48
105 0 line 67 47
106 0 line 5 67
107 0 line 66 68
108 0 line 68 67
109 0 line 69 43
110 0 line 42 69
111 0 line 67 70
112 0 line 70 69
113 0 line 71 7
114 0 line 72 13
115 0 line 71 73
116 0 line 73 74
117 0 line 74 72
118 0 line 72 75
119 0 line 75 42
120 0 line 75 76
121 0 line 76 43
122 0 line 76 45
123 0 line 77 19
124 0 line 55 77
125 0 line 45 78
126 0 line 78 77
127 0 line 23 79
128 0 line 79 3
129 0 line 3 80
130 0 line 80 59
131 0 line 79 81
132 0 line 81 80
133 0 line 82 61
134 0 line 60 82
135 0 line 80 83
136 0 line 83 82
137 0 line 9 84
138 0 line 84 11
139 0 line 20 85
140 0 line 85 9
141 0 line 84 86
142 0 line 86 85
143 0 line 85 87
144 0 line 87 63
145 0 line 20 87
146 0 line 87 88
147 0 line 88 65
148 0 line 37 88
149 0 line 88 89
150 0 line 89 66
151 0 line 5 89
152 0 line 89 68
153 0 line 68 90
154 0 line 90 49
155 0 line 47 90
156 0 line 91 19
157 0 line 47 91
158 0 line 90 92
159 0 line 92 91
160 0 line 6 93
161 0 line 93 16
162 0 line 31 94
163 0 line 94 32
164 0 line 93 95
165 0 line 95 96
166 0 line 96 94
167 0 line 13 97
168 0 line 97 71
169 0 line 97 98
170 0 line 98 74
171 0 line 74 99
172 0 line 99 72
173 0 line 10 99
174 0 line 99 100
175 0 line 100 75
176 0 line 10 100
177 0 line 100 101
178 0 line 101 76
179 0 line 10 101
180 0 line 102 44
181 0 line 10 102
182 0 line 101 103
183 0 line 103 102
1 1
Marker, -
1 0.0000000000000000e+00
2 0.0000000000000000e+00
3 0.0000000000000000e+00
4 0.0000000000000000e+00
5 0.0000000000000000e+00
6 0.0000000000000000e+00
7 6.0000000000000000e+00
8 0.0000000000000000e+00
9 5.0000000000000000e+00
10 0.0000000000000000e+00
11 0.0000000000000000e+00
12 8.0000000000000000e+00
13 0.0000000000000000e+00
14 0.0000000000000000e+00
15 7.0000000000000000e+00
16 0.0000000000000000e+00
17 0.0000000000000000e+00
18 7.0000000000000000e+00
19 0.0000000000000000e+00
20 5.0000000000000000e+00
21 0.0000000000000000e+00
22 0.0000000000000000e+00
23 5.0000000000000000e+00
24 6.0000000000000000e+00
25 7.0000000000000000e+00
26 8.0000000000000000e+00
27 6.0000000000000000e+00
28 0.0000000000000000e+00
29 5.0000000000000000e+00
30 8.0000000000000000e+00
31 8.0000000000000000e+00
32 0.0000000000000000e+00
33 0.0000000000000000e+00
34 0.0000000000000000e+00
35 0.0000000000000000e+00
36 0.0000000000000000e+00
37 0.0000000000000000e+00
38 0.0000000000000000e+00
39 0.0000000000000000e+00
40 0.0000000000000000e+00
41 0.0000000000000000e+00
42 0.0000000000000000e+00
43 0.0000000000000000e+00
44 0.0000000000000000e+00
45 0.0000000000000000e+00
46 0.0000000000000000e+00
47 0.0000000000000000e+00
48 0.0000000000000000e+00
49 0.0000000000000000e+00
50 0.0000000000000000e+00
51 0.0000000000000000e+00
52 0.0000000000000000e+00
53 0.0000000000000000e+00
54 0.0000000000000000e+00
55 0.0000000000000000e+00
56 0.0000000000000000e+00
57 0.0000000000000000e+00
58 0.0000000000000000e+00
59 0.0000000000000000e+00
60 0.0000000000000000e+00
61 0.0000000000000000e+00
62 0.0000000000000000e+00
63 0.0000000000000000e+00
64 0.0000000000000000e+00
65 0.0000000000000000e+00
66 0.0000000000000000e+00
67 0.0000000000000000e+00
68 0.0000000000000000e+00
69 0.0000000000000000e+00
70 0.0000000000000000e+00
71 0.0000000000000000e+00
72 0.0000000000000000e+00
73 0.0000000000000000e+00
74 0.0000000000000000e+00
75 0.0000000000000000e+00
76 0.0000000000000000e+00
77 0.0000000000000000e+00
78 0.0000000000000000e+00
79 0.0000000000000000e+00
80 7.0000000000000000e+00
81 0.0000000000000000e+00
82 0.0000000000000000e+00
83 0.0000000000000000e+00
84 0.0000000000000000e+00
85 0.0000000000000000e+00
86 0.0000000000000000e+00
87 0.0000000000000000e+00
88 0.0000000000000000e+00
89 0.0000000000000000e+00
90 0.0000000000000000e+00
91 0.0000000000000000e+00
92 0.0000000000000000e+00
93 7.0000000000000000e+00
94 7.0000000000000000e+00
95 0.0000000000000000e+00
96 0.0000000000000000e+00
97 0.0000000000000000e+00
98 0.0000000000000000e+00
99 0.0000000000000000e+00
100 0.0000000000000000e+00
101 0.0000000000000000e+00
102 0.0000000000000000e+00
103 0.0000000000000000e+00
104 0.0000000000000000e+00
105 0.0000000000000000e+00
106 0.0000000000000000e+00
107 0.0000000000000000e+00
108 0.0000000000000000e+00
109 0.0000000000000000e+00
110 0.0000000000000000e+00
111 0.0000000000000000e+00
112 0.0000000000000000e+00
113 0.0000000000000000e+00
114 0.0000000000000000e+00
115 0.0000000000000000e+00
116 0.0000000000000000e+00
117 0.0000000000000000e+00
118 0.0000000000000000e+00
119 0.0000000000000000e+00
120 0.0000000000000000e+00
121 0.0000000000000000e+00
122 0.0000000000000000e+00
123 0.0000000000000000e+00
124 0.0000000000000000e+00
125 0.0000000000000000e+00
126 0.0000000000000000e+00
127 6.0000000000000000e+00
128 6.0000000000000000e+00
129 0.0000000000000000e+00
130 0.0000000000000000e+00
131 0.0000000000000000e+00
132 0.0000000000000000e+00
133 0.0000000000000000e+00
134 0.0000000000000000e+00
135 0.0000000000000000e+00
136 0.0000000000000000e+00
137 0.0000000000000000e+00
138 0.0000000000000000e+00
139 0.0000000000000000e+00
140 0.0000000000000000e+00
141 0.0000000000000000e+00
142 0.0000000000000000e+00
143 0.0000000000000000e+00
144 0.0000000000000000e+00
145 0.0000000000000000e+00
146 0.0000000000000000e+00
147 0.0000000000000000e+00
148 0.0000000000000000e+00
149 0.0000000000000000e+00
150 0.0000000000000000e+00
151 0.0000000000000000e+00
152 0.0000000000000000e+00
153 0.0000000000000000e+00
154 0.0000000000000000e+00
155 0.0000000000000000e+00
156 0.0000000000000000e+00
157 0.0000000000000000e+00
158 0.0000000000000000e+00
159 0.0000000000000000e+00
160 8.0000000000000000e+00
161 8.0000000000000000e+00
162 0.0000000000000000e+00
163 0.0000000000000000e+00
164 0.0000000000000000e+00
165 0.0000000000000000e+00
166 0.0000000000000000e+00
167 0.0000000000000000e+00
168 0.0000000000000000e+00
169 0.0000000000000000e+00
170 0.0000000000000000e+00
171 0.0000000000000000e+00
172 0.0000000000000000e+00
173 0.0000000000000000e+00
174 0.0000000000000000e+00
175 0.0000000000000000e+00
176 0.0000000000000000e+00
177 0.0000000000000000e+00
178 0.0000000000000000e+00
179 0.0000000000000000e+00
180 0.0000000000000000e+00
181 0.0000000000000000e+00
182 0.0000000000000000e+00
183 0.0000000000000000e+00
